NAME : amtsp
TYPE : ATSP
DIMENSION : 9
EDGE_WEIGHT_TYPE : EXPLICIT
EDGE_WEIGHT_FORMAT : FULL_MATRIX
EDGE_WEIGHT_SECTION
100000 -100000 100000 100000 100000 100000 100000 100000 100000 
100000 100000 282 1594 1594 2125 2801 2675 2801 
0 0 100000 478 705 2473 3177 3076 3185 
0 0 478 100000 499 2300 3050 3156 3450 
0 0 705 499 100000 500 2300 2455 2851 
0 0 2473 2300 500 100000 500 1483 2388 
0 0 3177 3050 2300 500 100000 466 2200 
0 0 3076 3156 2455 1483 466 100000 466 
0 0 3185 3450 2851 2388 2200 466 100000 
